# Solution for model count
# Objective value = 10
z#1 0
z#2 0
z#3 1
z#4 1
z#5 0
z#6 0
z#7 0
z#8 1
z#9 0
z#10 0
z#11 1
z#12 0
z#13 1
z#14 1
z#15 0
z#16 0
z#17 0
z#18 0
z#19 1
z#20 1
z#21 0
z#22 1
z#23 0
z#24 1
x#24 2523
x#23 0
x#22 112
x#21 0
x#20 243
x#19 170
x#18 0
x#17 0
x#16 0
x#15 0
x#14 355
x#13 614
x#12 0
x#11 776
x#10 0
x#9 0
x#8 1515
x#7 0
x#6 0
x#5 0
x#4 1255
x#3 2437
x#2 0
x#1 0
